p tw 40 98
0 1
0 38
0 16
0 29
1 20
1 3
1 33
1 28
2 3
2 12
2 23
2 14
2 10
2 15
3 8
3 11
4 5
4 34
4 10
4 12
4 26
5 32
6 7
6 19
6 33
6 35
7 14
7 36
7 22
7 31
7 21
7 10
8 9
8 18
8 10
8 21
8 29
8 15
8 22
9 37
9 29
10 11
10 36
10 19
11 13
11 29
11 19
12 13
12 17
12 30
12 16
13 22
13 29
13 34
13 26
13 16
14 31
14 27
14 24
14 33
14 17
15 16
15 19
15 21
15 32
15 39
16 21
16 32
16 26
16 33
17 20
18 21
19 27
19 28
21 29
22 23
22 24
22 27
22 29
22 32
23 35
23 30
24 32
24 25
25 26
25 33
25 31
25 32
25 39
28 29
29 31
29 32
30 31
30 39
30 36
33 37
33 34
35 37
